 100 

  26  23  26   5  28   5  19   9  15   4  27  12  21  37   1  47  21  50  37  10  25  35  28  20  23  30  30  18  11  15  43  22   2  25  18  23   8  27  34   5  43  22  15  24   5  48  23  18  27   8   5  30  45  17  15   2   3  31  24  35  23  36  29  28  17  17  16  33  11   7  34  45  42  43  41  19   7  32   5  46   4  23  28  18  15   4  21  33   4  15  12  35  44   2  46  22  50  30  49  12

 129

  11   2   9  10  14  15   7   5  25  22   4  15  13   7  22  14  24   5  17  17  10  15   8  23   6   4  25  12  20  16   1  11  14  21   1   4  15  20  17   4   7   2  22  21  17   2  23  13   7  18   5  24  25  11  11   4   9   7  15   6  11   1  12   1  10   1   6   6  23  25  10   6  23  17   5   8   3  21   7   9  17   2  15   4  13  24  17  12   4   6   5   4   6   4   1   1   2   8   4  15

